p edge 150 1118
e 1 5
e 1 11
e 1 43
e 1 49
e 1 51
e 1 59
e 1 98
e 1 113
e 1 123
e 1 130
e 1 150
e 2 22
e 2 37
e 2 39
e 2 47
e 2 57
e 2 68
e 2 71
e 2 86
e 2 92
e 2 96
e 2 99
e 2 103
e 2 146
e 2 148
e 3 30
e 3 61
e 3 85
e 3 91
e 3 101
e 3 111
e 3 121
e 3 125
e 3 133
e 3 147
e 4 6
e 4 14
e 4 20
e 4 31
e 4 37
e 4 45
e 4 47
e 4 79
e 4 82
e 4 86
e 4 89
e 4 94
e 4 95
e 4 113
e 4 119
e 4 140
e 4 146
e 5 9
e 5 35
e 5 38
e 5 73
e 5 77
e 5 106
e 5 114
e 5 124
e 5 125
e 5 131
e 5 136
e 5 140
e 5 148
e 5 149
e 6 14
e 6 15
e 6 28
e 6 37
e 6 40
e 6 69
e 6 73
e 6 79
e 6 81
e 6 99
e 6 118
e 7 13
e 7 18
e 7 36
e 7 65
e 7 66
e 7 68
e 7 84
e 7 90
e 7 92
e 7 105
e 7 107
e 7 115
e 7 116
e 7 124
e 7 127
e 7 128
e 7 129
e 7 140
e 8 38
e 8 43
e 8 55
e 8 60
e 8 62
e 8 107
e 8 110
e 8 114
e 8 117
e 8 127
e 8 128
e 8 131
e 9 26
e 9 28
e 9 42
e 9 49
e 9 56
e 9 57
e 9 74
e 9 80
e 9 115
e 9 123
e 9 134
e 9 140
e 9 144
e 10 41
e 10 53
e 10 58
e 10 64
e 10 72
e 10 79
e 10 84
e 10 85
e 10 86
e 10 88
e 10 90
e 10 132
e 11 12
e 11 22
e 11 27
e 11 31
e 11 32
e 11 51
e 11 62
e 11 63
e 11 71
e 11 80
e 11 91
e 11 99
e 11 113
e 11 132
e 11 149
e 12 21
e 12 27
e 12 38
e 12 40
e 12 45
e 12 47
e 12 52
e 12 57
e 12 68
e 12 71
e 12 81
e 12 87
e 12 95
e 12 100
e 12 105
e 12 106
e 12 114
e 12 118
e 12 140
e 13 59
e 13 67
e 13 69
e 13 94
e 13 97
e 13 105
e 13 120
e 13 137
e 13 149
e 14 16
e 14 21
e 14 46
e 14 62
e 14 65
e 14 72
e 14 74
e 14 77
e 14 95
e 14 99
e 14 108
e 14 109
e 14 113
e 14 129
e 14 148
e 14 150
e 15 25
e 15 33
e 15 47
e 15 50
e 15 61
e 15 65
e 15 76
e 15 81
e 15 103
e 15 113
e 15 125
e 15 127
e 15 138
e 15 140
e 15 146
e 16 17
e 16 21
e 16 30
e 16 45
e 16 63
e 16 70
e 16 72
e 16 76
e 16 80
e 16 85
e 16 95
e 16 112
e 16 141
e 17 18
e 17 50
e 17 61
e 17 76
e 17 78
e 17 85
e 17 92
e 17 94
e 17 120
e 17 126
e 17 133
e 17 138
e 18 35
e 18 36
e 18 39
e 18 58
e 18 73
e 18 77
e 18 83
e 18 104
e 18 108
e 18 118
e 18 136
e 18 142
e 18 146
e 18 149
e 19 26
e 19 33
e 19 36
e 19 39
e 19 40
e 19 43
e 19 48
e 19 51
e 19 54
e 19 60
e 19 70
e 19 72
e 19 98
e 19 107
e 19 112
e 19 119
e 19 127
e 19 130
e 19 134
e 20 31
e 20 55
e 20 56
e 20 57
e 20 60
e 20 71
e 20 73
e 20 76
e 20 86
e 20 122
e 20 126
e 20 132
e 20 143
e 20 148
e 21 27
e 21 35
e 21 39
e 21 68
e 21 95
e 21 101
e 21 111
e 21 125
e 21 131
e 21 132
e 21 135
e 21 136
e 21 138
e 21 142
e 22 25
e 22 32
e 22 35
e 22 62
e 22 70
e 22 81
e 22 84
e 22 86
e 22 98
e 22 105
e 22 114
e 22 134
e 22 138
e 22 145
e 22 146
e 23 30
e 23 31
e 23 33
e 23 34
e 23 41
e 23 54
e 23 60
e 23 78
e 23 79
e 23 81
e 23 105
e 23 130
e 24 31
e 24 35
e 24 71
e 24 73
e 24 74
e 24 76
e 24 89
e 24 92
e 24 93
e 24 105
e 24 125
e 24 145
e 25 44
e 25 46
e 25 57
e 25 65
e 25 84
e 25 96
e 25 106
e 25 111
e 25 115
e 25 121
e 25 127
e 25 128
e 25 150
e 26 43
e 26 64
e 26 73
e 26 79
e 26 88
e 26 93
e 26 105
e 26 119
e 26 121
e 26 150
e 27 32
e 27 53
e 27 60
e 27 64
e 27 66
e 27 86
e 27 124
e 27 135
e 27 147
e 27 150
e 28 36
e 28 40
e 28 41
e 28 49
e 28 54
e 28 63
e 28 75
e 28 86
e 28 101
e 28 119
e 28 128
e 28 131
e 28 135
e 28 138
e 28 141
e 29 36
e 29 38
e 29 50
e 29 66
e 29 70
e 29 82
e 29 84
e 29 86
e 29 100
e 29 104
e 29 105
e 29 111
e 29 128
e 30 45
e 30 62
e 30 81
e 30 94
e 30 99
e 30 106
e 30 138
e 30 139
e 31 35
e 31 36
e 31 45
e 31 73
e 31 84
e 31 87
e 31 96
e 31 98
e 31 103
e 31 122
e 31 123
e 31 134
e 31 144
e 31 146
e 32 39
e 32 50
e 32 55
e 32 58
e 32 73
e 32 81
e 32 83
e 32 88
e 32 95
e 32 101
e 32 105
e 32 134
e 32 137
e 33 35
e 33 37
e 33 40
e 33 41
e 33 53
e 33 82
e 33 90
e 33 101
e 33 107
e 33 109
e 33 115
e 33 116
e 33 119
e 33 122
e 33 127
e 33 136
e 33 138
e 33 143
e 34 45
e 34 66
e 34 67
e 34 76
e 34 94
e 34 118
e 34 147
e 35 46
e 35 54
e 35 57
e 35 62
e 35 65
e 35 67
e 35 79
e 35 94
e 35 100
e 35 120
e 35 137
e 36 38
e 36 46
e 36 47
e 36 48
e 36 80
e 36 108
e 36 110
e 36 119
e 36 123
e 36 135
e 36 143
e 36 149
e 37 38
e 37 42
e 37 49
e 37 50
e 37 54
e 37 74
e 37 92
e 37 98
e 37 100
e 37 101
e 37 103
e 37 110
e 37 128
e 37 143
e 38 71
e 38 77
e 38 95
e 38 103
e 38 130
e 38 132
e 38 148
e 39 45
e 39 46
e 39 47
e 39 49
e 39 52
e 39 56
e 39 64
e 39 65
e 39 78
e 39 82
e 39 91
e 39 122
e 39 131
e 39 142
e 39 145
e 39 150
e 40 45
e 40 67
e 40 69
e 40 104
e 40 105
e 40 127
e 40 138
e 40 142
e 40 150
e 41 43
e 41 54
e 41 61
e 41 63
e 41 82
e 41 102
e 41 104
e 41 147
e 42 51
e 42 59
e 42 65
e 42 69
e 42 72
e 42 84
e 42 102
e 42 105
e 42 119
e 42 125
e 42 143
e 43 54
e 43 56
e 43 63
e 43 64
e 43 76
e 43 88
e 43 94
e 43 95
e 43 114
e 43 118
e 43 135
e 44 55
e 44 57
e 44 63
e 44 73
e 44 82
e 44 96
e 44 103
e 44 129
e 44 135
e 44 143
e 44 149
e 45 47
e 45 48
e 45 59
e 45 60
e 45 82
e 45 96
e 45 106
e 45 114
e 45 118
e 45 129
e 45 130
e 45 137
e 45 139
e 45 146
e 46 50
e 46 52
e 46 60
e 46 87
e 46 90
e 46 105
e 46 111
e 46 116
e 47 48
e 47 56
e 47 68
e 47 75
e 47 81
e 47 84
e 47 85
e 47 110
e 47 115
e 47 117
e 47 124
e 47 150
e 48 58
e 48 62
e 48 83
e 48 86
e 48 94
e 48 97
e 48 99
e 48 110
e 48 120
e 48 122
e 48 131
e 48 134
e 48 139
e 48 149
e 49 51
e 49 58
e 49 60
e 49 62
e 49 63
e 49 65
e 49 73
e 49 84
e 49 96
e 49 104
e 49 106
e 49 111
e 49 114
e 49 133
e 49 135
e 49 140
e 49 150
e 50 58
e 50 65
e 50 86
e 50 96
e 50 117
e 50 135
e 50 136
e 50 143
e 51 57
e 51 70
e 51 95
e 51 100
e 51 107
e 51 111
e 51 113
e 51 114
e 51 115
e 51 122
e 52 65
e 52 71
e 52 77
e 52 78
e 52 92
e 52 109
e 52 125
e 52 134
e 52 142
e 53 63
e 53 87
e 53 88
e 53 92
e 53 123
e 53 126
e 54 57
e 54 65
e 54 76
e 54 85
e 54 89
e 54 95
e 54 101
e 54 103
e 54 111
e 54 117
e 54 121
e 54 123
e 54 133
e 54 141
e 55 64
e 55 75
e 55 90
e 55 117
e 55 119
e 55 131
e 55 140
e 55 148
e 55 149
e 56 59
e 56 61
e 56 65
e 56 92
e 56 106
e 56 107
e 56 109
e 56 110
e 56 114
e 56 125
e 56 138
e 56 144
e 57 70
e 57 77
e 57 95
e 57 117
e 57 133
e 57 135
e 57 144
e 57 145
e 57 147
e 58 61
e 58 103
e 58 106
e 58 135
e 58 141
e 58 143
e 58 145
e 59 88
e 59 93
e 59 99
e 59 130
e 59 137
e 59 139
e 60 68
e 60 76
e 60 80
e 60 102
e 60 119
e 60 125
e 60 128
e 60 142
e 61 64
e 61 73
e 61 78
e 61 107
e 61 121
e 61 126
e 61 128
e 61 130
e 61 134
e 62 66
e 62 72
e 62 95
e 62 100
e 62 104
e 62 136
e 62 143
e 63 72
e 63 73
e 63 75
e 63 79
e 63 82
e 63 83
e 63 100
e 63 115
e 63 120
e 63 133
e 63 142
e 63 144
e 64 66
e 64 68
e 64 74
e 64 78
e 64 81
e 64 82
e 64 88
e 64 89
e 64 90
e 64 91
e 64 93
e 64 119
e 64 134
e 64 139
e 64 147
e 65 70
e 65 76
e 65 79
e 65 89
e 65 120
e 65 122
e 65 126
e 65 127
e 66 106
e 66 110
e 67 69
e 67 89
e 67 100
e 67 105
e 67 115
e 67 116
e 68 81
e 68 82
e 68 84
e 68 108
e 68 120
e 68 131
e 68 134
e 68 137
e 69 83
e 69 85
e 69 93
e 69 103
e 69 133
e 69 134
e 70 79
e 70 85
e 70 92
e 70 104
e 70 106
e 70 116
e 70 123
e 70 130
e 70 147
e 70 150
e 71 76
e 71 80
e 71 94
e 71 99
e 71 125
e 71 140
e 72 73
e 72 101
e 72 103
e 72 111
e 72 120
e 72 134
e 72 146
e 72 148
e 73 79
e 73 110
e 73 111
e 73 118
e 73 129
e 74 76
e 74 78
e 74 82
e 74 84
e 74 97
e 74 115
e 74 127
e 75 84
e 75 92
e 75 108
e 75 133
e 75 145
e 76 87
e 76 104
e 76 120
e 76 124
e 76 128
e 76 146
e 76 148
e 77 141
e 77 149
e 78 80
e 78 83
e 78 89
e 78 100
e 78 129
e 78 136
e 78 141
e 78 143
e 79 89
e 79 110
e 79 117
e 79 130
e 80 81
e 80 88
e 80 92
e 80 104
e 80 121
e 80 144
e 81 83
e 81 98
e 81 101
e 81 111
e 81 129
e 81 136
e 81 149
e 82 88
e 82 90
e 82 92
e 82 93
e 82 122
e 82 127
e 82 140
e 83 90
e 83 115
e 83 127
e 84 92
e 84 94
e 84 97
e 84 100
e 84 113
e 84 117
e 84 130
e 84 143
e 85 86
e 85 103
e 85 115
e 85 116
e 85 118
e 85 137
e 86 121
e 86 128
e 86 149
e 86 150
e 87 97
e 87 99
e 87 101
e 87 106
e 87 110
e 87 119
e 87 121
e 87 132
e 87 150
e 88 91
e 88 96
e 88 97
e 88 99
e 88 119
e 88 120
e 88 122
e 89 97
e 89 99
e 89 103
e 89 115
e 89 120
e 89 138
e 89 139
e 90 110
e 90 121
e 90 126
e 90 132
e 90 142
e 91 94
e 91 97
e 91 118
e 91 123
e 91 130
e 91 134
e 91 142
e 92 100
e 92 103
e 92 107
e 92 112
e 92 115
e 92 120
e 92 126
e 92 129
e 92 132
e 92 138
e 92 146
e 92 150
e 93 110
e 93 136
e 93 138
e 94 103
e 94 104
e 94 107
e 94 126
e 95 125
e 95 132
e 95 136
e 96 97
e 96 113
e 96 119
e 96 120
e 96 136
e 96 141
e 96 150
e 97 102
e 97 104
e 97 112
e 97 115
e 97 118
e 98 105
e 98 106
e 98 109
e 98 123
e 98 146
e 99 102
e 99 116
e 99 125
e 99 140
e 99 141
e 99 150
e 100 121
e 100 126
e 100 130
e 100 136
e 101 130
e 101 140
e 101 147
e 101 148
e 101 149
e 102 109
e 102 147
e 103 118
e 103 119
e 103 123
e 103 124
e 103 130
e 103 135
e 103 140
e 104 105
e 104 128
e 104 130
e 104 131
e 104 139
e 104 150
e 105 106
e 105 139
e 105 140
e 106 131
e 106 132
e 106 141
e 106 142
e 107 110
e 107 115
e 107 133
e 108 110
e 108 125
e 108 127
e 108 129
e 108 138
e 108 145
e 109 112
e 109 120
e 109 121
e 109 148
e 110 127
e 110 145
e 111 121
e 111 126
e 111 130
e 111 131
e 111 140
e 111 148
e 111 150
e 112 113
e 112 120
e 112 125
e 113 123
e 113 124
e 113 132
e 113 142
e 113 150
e 114 120
e 114 125
e 114 129
e 114 134
e 114 142
e 115 117
e 115 124
e 115 145
e 115 150
e 116 119
e 116 120
e 116 122
e 116 130
e 116 132
e 116 136
e 116 150
e 117 120
e 117 131
e 118 122
e 118 144
e 118 148
e 119 130
e 119 138
e 120 121
e 120 140
e 120 141
e 120 147
e 121 128
e 121 129
e 121 132
e 121 139
e 121 140
e 121 141
e 121 142
e 122 125
e 122 129
e 122 146
e 122 150
e 123 125
e 123 126
e 124 134
e 124 145
e 124 150
e 125 134
e 126 131
e 126 135
e 126 139
e 126 150
e 127 128
e 127 134
e 127 149
e 130 131
e 130 135
e 130 140
e 130 147
e 131 147
e 132 144
e 133 141
e 133 146
e 133 150
e 134 141
e 134 142
e 134 147
e 134 150
e 136 138
e 136 149
e 137 139
e 137 149
e 138 148
e 138 149
e 140 144
e 141 142
e 141 147
e 143 149
e 144 149
e 144 150
